benchmarks_vrp/CMT2/fixed_c/CMT2_8.vrp
NAME: CMT2_8
TYPE: CVRP
COMMENT: 835.26 - Cluster Nr.8
DIMENSION: 10
CAPACITY: 140
EDGE_WEIGHT_TYPE: EUC_2D
NODE_COORD_TYPE: TWOD_COORDS
NODE_COORD_SECTION: 
7 31 76
2 30 60
4 40 40
8 33 44
10 26 59
6 35 60
1 35 51
9 30 50
3 40 60
5 40 66
DEPOT_SECTION: 
4
-1
DEMAND_SECTION: 
3 21
8 20
6 1
10 29
1 16
7 25
9 33
5 26
2 16
4 0
EOF
