benchmarks_vrp/CMT2/fixed_c/CMT2_8.tour
NAME: CMT2_8 solution
TYPE: TOUR
TOUR_SECTION:
4 1 6 2 10 7 5 3 -1
4 8 9 -1
-1
EOF